mode: 3, sl: 0, sr: 0, revisit: 1, loop: 1
Jetsuite speed factor: 8.71
Solving mode: 3-indexed base
Solving mode: 3-indexed base
Instance name: /home/orlab/rv-fstsp2/rv-fstsp-jetsuite/Niels_instances/output_with_jetsuite//uniform-alpha_3-60-n10-maxradius-200.txt
---------------------------------------------------------------
Current config:
- Number of threads = -1
- Drone endurance = 9999
- SL = 0
- SR = 0
- Allow loop = 1
- Allow revisit = 1
- Allow multi-visit drone = 0
- Use TSP optimal solution as warmstart: = 0
- Use cutting plane method: = 0
- Use CPLEX conflict refiner: = 0
- Debug info: = 0
- Jetsuit enabled: = 0
---------------------------------------------------------------
Version identifier: 22.1.1.0 | 2022-11-28 | 9160aff4d
Tried aggregator 2 times.
MIP Presolve eliminated 1114 rows and 2171 columns.
MIP Presolve modified 1415 coefficients.
Aggregator did 9 substitutions.
Reduced MIP has 1249 rows, 3780 columns, and 30893 nonzeros.
Reduced MIP has 3760 binaries, 0 generals, 0 SOSs, and 0 indicators.
Presolve time = 0.02 sec. (44.34 ticks)
Found incumbent of value 90825.651646 after 0.03 sec. (67.94 ticks)
Probing fixed 54 vars, tightened 18 bounds.
Probing changed sense of 5 constraints.
Probing time = 0.08 sec. (186.10 ticks)
Cover probing fixed 0 vars, tightened 22 bounds.
Tried aggregator 2 times.
Detecting symmetries...
MIP Presolve eliminated 53 rows and 121 columns.
MIP Presolve modified 2544 coefficients.
Aggregator did 12 substitutions.
Reduced MIP has 1181 rows, 3647 columns, and 30191 nonzeros.
Reduced MIP has 3634 binaries, 0 generals, 0 SOSs, and 0 indicators.
Presolve time = 0.02 sec. (50.34 ticks)
Probing time = 0.01 sec. (7.82 ticks)
Cover probing fixed 0 vars, tightened 3 bounds.
Clique table members: 14637.
MIP emphasis: balance optimality and feasibility.
MIP search method: dynamic search.
Parallel mode: deterministic, using up to 20 threads.
Root relaxation solution time = 0.09 sec. (195.72 ticks)

        Nodes                                         Cuts/
   Node  Left     Objective  IInf  Best Integer    Best Bound    ItCnt     Gap

*     0+    0                        90825.6516       37.3416            99.96%
      0     0       74.8280   118    90825.6516       74.8280       32   99.92%
*     0+    0                          158.2772       74.8280            52.72%
      0     0       81.8296   153      158.2772      Cuts: 16     2172   48.30%
      0     0       85.4084   137      158.2772      Cuts: 45     2637   46.04%
      0     0       85.4084   132      158.2772      Cuts: 20     2782   46.04%
      0     0       85.4573   161      158.2772      Cuts: 17     2917   46.01%
      0     0       98.0087   128      158.2772      Cuts: 10     5453   38.08%
Detecting symmetries...
      0     0       98.0253   170      158.2772      Cuts: 24     8077   38.07%
      0     0       98.0311   169      158.2772      Cuts: 24     9456   38.05%
      0     0       98.0489   178      158.2772      Cuts: 23     9866   38.02%
      0     0       98.0559   141      158.2772      Cuts: 30    10858   38.00%
      0     0       98.0563   157      158.2772      Cuts: 34    11157   38.00%
Detecting symmetries...
      0     2       98.0563   157      158.2772       98.1331    11157   38.00%
Elapsed time = 1.93 sec. (3149.62 ticks, tree = 0.02 MB, solutions = 2)
     32    10      130.6165   115      158.2772       98.1331    15642   38.00%
    226     6      145.2980    90      158.2772       98.1331    31228   38.00%
    529    33        cutoff            158.2772       98.1331    57878   38.00%
    841    22      147.9198    93      158.2772       98.1331    74364   38.00%
   1223    46      158.1488    51      158.2772       98.1331    92191   38.00%
   1880    25      134.8919   121      158.2772       98.1331   145261   38.00%
   2179    20      151.9191    73      158.2772       98.1331   167892   38.00%
   2542    11        cutoff            158.2772       98.1331   206136   38.00%
   2671    13      148.5983   113      158.2772       98.2335   227917   37.94%
*  2720    21      integral     0      156.4316       98.2335   227486   37.20%
   4353    16      110.8920   103      156.4316      100.2282   359467   35.93%
Elapsed time = 5.30 sec. (6262.36 ticks, tree = 0.02 MB, solutions = 3)
   5098     8        cutoff            156.4316      112.6341   454094   28.00%

Clique cuts applied:  1
Cover cuts applied:  2
Implied bound cuts applied:  135
Flow cuts applied:  2
Mixed integer rounding cuts applied:  25
Zero-half cuts applied:  3
Gomory fractional cuts applied:  3

Root node processing (before b&c):
  Real time             =    1.86 sec. (3073.58 ticks)
Parallel b&c, 20 threads:
  Real time             =    4.74 sec. (4642.31 ticks)
  Sync time (average)   =    3.10 sec.
  Wait time (average)   =    0.00 sec.
                          ------------
Total (root+branch&cut) =    6.60 sec. (7715.89 ticks)
Solve time: 6.613
Objective Value: 156.432

Truck Schedule: 
Stage 1: Truck arrived node 0 at 0
	Truck departed from node 0 to node 6 at 0
Stage 2: Truck arrived node 6 at 54.6777
	Truck departed from node 6 to node 6 at 54.6777
Stage 3: Truck arrived node 6 at 54.6777
	Truck departed from node 6 to node 6 at 73.1168
Stage 4: Truck arrived node 6 at 73.1168
	Truck departed from node 6 to node 6 at 87.6121
Stage 5: Truck arrived node 6 at 87.6121
	Truck departed from node 6 to node 10 at 101.754
Stage 6: Truck arrived node 10 at 156.432

Truck arc:
Stage 1: 0 -> 6
Stage 2: 6 -> 6
Stage 3: 6 -> 6
Stage 4: 6 -> 6
Stage 5: 6 -> 10

Drone Schedule: 
Stage 1 to 2: Drone departed from node 0 visited customer 8 and arrived to node 6
	 Departed at: 0
	 Visited at: 26.921
	 Arrived at: 42.5451
Added drone operation: position 0 (node 0) -> customer 8 -> position 1 (node 6)
Stage 2 to 3: Drone departed from node 6 visited customer 4 and arrived to node 6
	 Departed at: 54.6777
	 Visited at: 63.8973
	 Arrived at: 73.1168
Added drone operation: position 1 (node 6) -> customer 4 -> position 2 (node 6)
Stage 3 to 4: Drone departed from node 6 visited customer 2 and arrived to node 6
	 Departed at: 73.1168
	 Visited at: 80.2738
	 Arrived at: 87.4308
Added drone operation: position 2 (node 6) -> customer 2 -> position 3 (node 6)
Stage 4 to 5: Drone departed from node 6 visited customer 1 and arrived to node 6
	 Departed at: 87.6121
	 Visited at: 94.0239
	 Arrived at: 100.436
Added drone operation: position 3 (node 6) -> customer 1 -> position 4 (node 6)
Stage 5 to 6: Drone departed from node 6 visited customer 3 and arrived to node 10
	 Departed at: 101.754
	 Visited at: 122.796
	 Arrived at: 155.493
Added drone operation: position 4 (node 6) -> customer 3 -> position 5 (node 10)

Jetsuite Schedule: 
Stage 2: Jetsuite launched from node 6 served customer 5 and recovered at node 6
Stage 3: Jetsuite launched from node 6 served customer 9 and recovered at node 6
Stage 4: Jetsuite launched from node 6 served customer 7 and recovered at node 6
x[0][6][1] = 1
x[6][6][2] = 1
x[6][6][3] = 1
x[6][6][4] = 1
x[6][10][5] = 1

Drone Variables (V[i][h][k]):
Y[0][8][1] = 1
Y[6][1][4] = 1
Y[6][2][3] = 1
Y[6][3][5] = 1
Y[6][4][2] = 1

Jetsuite Variables (U[i][h][k]):
U[6][5][2] = 1
U[6][7][4] = 1
U[6][9][3] = 1

Checking the feasibility of the solution...
Time schedule is not given, recalculating...
Current objective: 156.432
Recalculated objective: 154.932
